NAME : XML100_3232_02
DIMENSION : 101
NB_CLUSTERS : 6
CLUSTERING_ALG : KMedoids
CLUSTERING_PARAMS : k(5)
CLUSTERS
1 0
2 3 7 11 15 16 18 22 27 31 34 35 39 44 47 48 49 53 55 56 64 66 69 70 73 74 78 82 84 85 93
3 1 2 5 8 12 13 17 21 23 29 41 43 52 60 63 68 72 76 77 81 97 100
4 20 24 25 26 28 30 32 36 38 40 46 50 51 54 57 61 65 67 80 83 92
5 14 19 33 45 58 62 71 79 86 87 88 89 94 95 98 99
6 4 6 9 10 37 42 59 75 90 91 96
EOF